branch-and-cut/resultados/I080/i080-032.sol
2088
15
1 28
51 9
25 9
2 42
42 38
46 18
38 35
28 9
7 3
7 38
7 51
35 18
28 5
6 25
4 46
